20
1 0 34
2 0 26
2 1 6
3 0 3
3 1 6
3 2 4
4 0 26
4 1 31
4 2 27
4 3 11
5 0 14
5 1 16
5 2 14
5 3 10
5 4 11
6 0 15
6 1 20
6 2 11
6 3 39
6 4 19
6 5 29
7 0 34
7 1 22
7 2 25
7 3 29
7 4 40
7 5 21
7 6 8
8 0 14
8 1 7
8 2 27
8 3 37
8 4 27
8 5 1
8 6 4
8 7 27
9 0 33
9 1 30
9 2 32
9 3 14
9 4 18
9 5 39
9 6 33
9 7 22
9 8 22
10 0 11
10 1 12
10 2 16
10 3 34
10 4 19
10 5 16
10 6 4
10 7 38
10 8 1
10 9 36
11 0 33
11 1 36
11 2 18
11 3 25
11 4 12
11 5 39
11 6 36
11 7 17
11 8 31
11 9 30
11 10 21
12 0 38
12 1 25
12 2 36
12 3 28
12 4 29
12 5 28
12 6 3
12 7 34
12 8 9
12 9 36
12 10 1
12 11 4
13 0 34
13 1 34
13 2 29
13 3 39
13 4 9
13 5 30
13 6 38
13 7 2
13 8 27
13 9 16
13 10 3
13 11 7
13 12 25
14 0 10
14 1 21
14 2 27
14 3 27
14 4 40
14 5 18
14 6 28
14 7 26
14 8 40
14 9 18
14 10 22
14 11 3
14 12 14
14 13 14
15 0 27
15 1 38
15 2 25
15 3 27
15 4 29
15 5 13
15 6 34
15 7 32
15 8 32
15 9 20
15 10 21
15 11 14
15 12 34
15 13 30
15 14 16
16 0 11
16 1 27
16 2 26
16 3 1
16 4 20
16 5 10
16 6 30
16 7 15
16 8 1
16 9 3
16 10 37
16 11 1
16 12 13
16 13 1
16 14 37
16 15 23
17 0 35
17 1 27
17 2 14
17 3 27
17 4 15
17 5 3
17 6 38
17 7 15
17 8 9
17 9 32
17 10 12
17 11 36
17 12 39
17 13 9
17 14 14
17 15 40
17 16 36
18 0 28
18 1 32
18 2 30
18 3 37
18 4 5
18 5 33
18 6 36
18 7 36
18 8 29
18 9 28
18 10 25
18 11 10
18 12 17
18 13 29
18 14 6
18 15 4
18 16 40
18 17 38
19 0 17
19 1 6
19 2 28
19 3 40
19 4 6
19 5 36
19 6 10
19 7 34
19 8 17
19 9 8
19 10 19
19 11 10
19 12 9
19 13 30
19 14 33
19 15 20
19 16 7
19 17 26
19 18 10
